1574560
15,58,35,49,27,30,21,51,32,56,17,9,13,43,52,36,61,38,50,34,67,7,14,57,8,16,26,44,1,47,3,19,64,12,46,53,18,48,22,5,63,10,65,25,54,33,45,42,6,66,37,40,29,24,28,59,4,39,55,31,41,11,0,23,60,2,20,62
